c FILE: I8.clq
c
c SOURCE: Manually created by Breno Viana
c
c Graph Stats
c number of vertices  : 12
c number of edges     : 21
p col 12 21
e 1 2
e 1 3
e 1 4
e 2 3
e 2 4
e 2 5
e 2 6
e 3 4
e 5 6
e 5 7
e 7 8
e 8 9
e 8 10
e 8 11
e 8 12
e 9 10
e 9 11
e 9 12
e 10 11
e 10 12
e 11 12
